103
0 90 54 16 93 57 27 8 17 91 
25 70 59 45 87 77 79 13 73 94 
101 83 61 18 42 88 1 50 68 55 
36 32 75 5 9 76 58 22 71 63 
69 95 99 11 85 72 89 64 2 84 
44 24 39 21 6 38 12 10 81 3 
67 74 35 48 60 56 62 52 40 41 
97 47 53 29 28 49 66 100 82 96 
86 20 78 7 31 98 92 14 30 23 
19 51 15 46 43 34 37 80 65 26 
102 33 4 
